2011,75.6,111.9,27.8,24.1,52.5,61.4,1.7,6.6,21.0,18.2,0.2,1.4,3.0,7.5,79.3,.807,.417,.458
2010,80.7,105.8,25.1,23.2,45.9,55.3,1.3,8.7,28.7,18.5,0.1,1.8,2.9,5.8,64.5,.817,.424,.333
2008,46.7,102.4,15.8,15.4,49.6,55.4,2.5,5.7,15.9,24.0,0.2,2.3,3.6,2.7,35.0,.860,.579,.306
2007,76.0,104.2,18.9,14.7,47.0,60.5,1.1,8.8,23.0,28.3,0.3,2.5,2.6,5.0,87.0,.884,.422,.333
